webassembly/ejemplos_results/16/folder16_json_82.txt
=====UNSATISFIABLE=====
% time elapsed: 0.63 s
